data_10245-ICSD
#?2010 by Fachinformationszentrum Karlsruhe, and the U.S. Secretary of 
#Commerce on behalf of the United States.  All rights reserved.
_database_code_ICSD                10245
_audit_creation_date               1980/01/01
_audit_update_record               1998/06/26
_chemical_name_systematic
;
Calcium Aluminium Phyllo-heptaoxotriborate
;
_chemical_formula_structural       'Ca Al (B3 O7)'
_chemical_formula_sum              'Al1 B3 Ca1 O7'
_chemical_name_mineral             Johachidolite
_publ_section_title
;
Johachidolite, Ca Al (B3 O7), a borate with very dense atomic 
structure
;
loop_
_citation_id
_citation_journal_abbrev
_citation_year
_citation_journal_volume
_citation_page_first
_citation_page_last
_citation_journal_id_ASTM
primary 'Nature (London), Physical Science' 1972 240 63 65 NPSCA6
_publ_author_name                  'Moore, P.B.;Araki, T.'
_cell_length_a                     7.970(1)
_cell_length_b                     11.722(1)
_cell_length_c                     4.374(1)
_cell_angle_alpha                  90.
_cell_angle_beta                   90.
_cell_angle_gamma                  90.
_cell_volume                       408.64
_cell_formula_units_Z              4
_symmetry_space_group_name_H-M     'C m m a'
_symmetry_Int_Tables_number        67
_refine_ls_R_factor_all            .09
loop_
_symmetry_equiv_pos_site_id
_symmetry_equiv_pos_as_xyz
  1	'x+.5, y, -z'
  2	'x+.5, -y, z'
  3	'-x, y, z'
  4	'-x, -y, -z'
  5	'-x+.5, -y, z'
  6	'-x+.5, y, -z'
  7	'x, -y, -z'
  8	'x, y, z'
  9	'x, y+.5, -z'
 10	'x, -y+.5, z'
 11	'-x+.5, y+.5, z'
 12	'-x+.5, -y+.5, -z'
 13	'-x, -y+.5, z'
 14	'-x, y+.5, -z'
 15	'x+.5, -y+.5, -z'
 16	'x+.5, y+.5, z'
loop_
_atom_type_symbol
_atom_type_oxidation_number
Al3+	3
B3+	3
Ca2+	2
O2-	-2
loop_
_atom_site_label
_atom_site_type_symbol
_atom_site_symmetry_multiplicity
_atom_site_Wyckoff_symbol
_atom_site_fract_x
_atom_site_fract_y
_atom_site_fract_z
_atom_site_occupancy
_atom_site_attached_hydrogens
_atom_site_B_iso_or_equiv
Ca1 Ca2+ 4 e 0.25 0.25 0 1. 0 0.78 
Al1 Al3+ 4 c 0 0 0 1. 0 0.5 
B1 B3+ 4 b 0.25 0 0.5 1. 0 0.5 
B2 B3+ 8 m 0 0.1365(4) 0.4571(9) 1. 0 0.6 
O1 O2- 4 g 0 0.25 0.3289(9) 1. 0 0.57 
O2 O2- 8 m 0 0.1311(3) -.2231(6) 1. 0 0.61 
O3 O2- 16 o 0.1466(3) 0.0731(2) 0.2990(4) 1. 0 0.56 

#End of data_10245-ICSD


