Li12 P4 S16                             
   1.00000000000000     
    13.0125458966473992    0.0008490094234643   -0.0011552335167327
    -0.0017279435209018    8.1868538629352710   -0.0019117173689353
     0.0000607960269634   -0.0013334725150406    6.2553920457199359
   Li   P    S 
    12     4    16
Direct
  0.5096568629596492  0.0462477122439370 -0.0762212577825308
  0.0094503068341620  0.4381916335364995  0.5626127621535824
  0.4947227515952831  0.5455867052217233  0.0645471896630308
  0.8322832447092560  0.0331222427920612  0.0722053530976053
  0.3319612334996929  0.4502220621769751  0.4178147232822921
  0.1720844016569533  0.5344356519854859  0.9168021639446926
  0.6726762905200415  0.9511485025041454  0.5719531714819314
  0.1658331978313902  0.9659801832180697  0.8676832110286262
  0.6655907683594408  0.5184532398534750  0.6193912010137899
  0.8390365387306378  0.4660420520555442  0.1186489945147521
  0.3388895398281260  0.0177862608201237  0.3675097408835746
 -0.0048010733767848  0.9394250837097040  0.4255918843274129
  0.5913260709627182  0.2423955201662389  0.3334704978223436
  0.0913155371855396  0.2413697720612052  0.1539425081274265
  0.4131613885436858  0.7431008552334278  0.6548335387650626
  0.9135000143058595  0.7417844137835821  0.8331654453696904
  0.6526170291157616  0.0357680802419462  0.1974252687182163
  0.1527185201535043  0.4477049177504482  0.2905821141107631
  0.3517393378906867  0.5369165939219505  0.7917480497447948
  0.8520866379859591  0.9485402348787296  0.6977101266246242
  0.3479984740508193  0.9589739531636017  0.7557168693658403
  0.8480621666741480  0.5264465502048857  0.7310177157754796
  0.6567247397150272  0.4576630177835632  0.2315054784113007
  0.1565526985396668  0.0259718600902610  0.2557063599872297
  0.4402599016873012  0.2495498825314622  0.2247640245932603
  0.9403675001134254  0.2345751602384424  0.2633476852634983
  0.5642304495714692  0.7498786861822612  0.7631900073206962
  0.0643767928069356  0.7347412315956077  0.7236262197966787
  0.6095618933159336  0.2315631746880672  0.6585840870671343
  0.1095104373423161  0.2528503931196469  0.8289664188966159
  0.3947776521610996  0.7309814008712329  0.3298544834882538
  0.8957286947302949  0.7525829713756966  0.1583039631423298
 
  0.00000000E+00  0.00000000E+00  0.00000000E+00
  0.00000000E+00  0.00000000E+00  0.00000000E+00
  0.00000000E+00  0.00000000E+00  0.00000000E+00
  0.00000000E+00  0.00000000E+00  0.00000000E+00
  0.00000000E+00  0.00000000E+00  0.00000000E+00
  0.00000000E+00  0.00000000E+00  0.00000000E+00
  0.00000000E+00  0.00000000E+00  0.00000000E+00
  0.00000000E+00  0.00000000E+00  0.00000000E+00
  0.00000000E+00  0.00000000E+00  0.00000000E+00
  0.00000000E+00  0.00000000E+00  0.00000000E+00
  0.00000000E+00  0.00000000E+00  0.00000000E+00
  0.00000000E+00  0.00000000E+00  0.00000000E+00
  0.00000000E+00  0.00000000E+00  0.00000000E+00
  0.00000000E+00  0.00000000E+00  0.00000000E+00
  0.00000000E+00  0.00000000E+00  0.00000000E+00
  0.00000000E+00  0.00000000E+00  0.00000000E+00
  0.00000000E+00  0.00000000E+00  0.00000000E+00
  0.00000000E+00  0.00000000E+00  0.00000000E+00
  0.00000000E+00  0.00000000E+00  0.00000000E+00
  0.00000000E+00  0.00000000E+00  0.00000000E+00
  0.00000000E+00  0.00000000E+00  0.00000000E+00
  0.00000000E+00  0.00000000E+00  0.00000000E+00
  0.00000000E+00  0.00000000E+00  0.00000000E+00
  0.00000000E+00  0.00000000E+00  0.00000000E+00
  0.00000000E+00  0.00000000E+00  0.00000000E+00
  0.00000000E+00  0.00000000E+00  0.00000000E+00
  0.00000000E+00  0.00000000E+00  0.00000000E+00
  0.00000000E+00  0.00000000E+00  0.00000000E+00
  0.00000000E+00  0.00000000E+00  0.00000000E+00
  0.00000000E+00  0.00000000E+00  0.00000000E+00
  0.00000000E+00  0.00000000E+00  0.00000000E+00
  0.00000000E+00  0.00000000E+00  0.00000000E+00
